# Solution for model Objective
# Objective value = 4
M 2
W3 0
W5 0
W7 0
W11 0
W12 0
W17 0
W18 0
W22 0
W25 0
W27 0
W28 0
W29 0
W30 0
W33 0
W34 0
W35 0
W37 0
W38 0
W41 0
W42 1
W43 0
W44 1
W46 0
W0 2
W1 2
W2 2
W4 0
W6 0
W8 1
W9 2
W10 2
W13 2
W14 2
W15 2
W16 2
W19 2
W20 2
W21 2
W23 0
W24 1
W26 0
W31 0
W32 0
W36 0
W39 0
W40 0
W45 0
d0_1 0
d0_2 0
d0_3 0
d0_4 0
d0_5 0
d0_6 0
d0_7 0
d0_8 0
d0_9 0
d0_0 1
d1_1 0
d1_2 1
d1_3 0
d1_4 0
d1_5 0
d1_6 0
d1_7 0
d1_8 0
d1_9 0
d1_0 0
d2_1 1
d2_2 0
d2_3 0
d2_4 0
d2_5 0
d2_6 0
d2_7 0
d2_8 0
d2_9 0
d2_0 0
d3_1 0
d3_2 0
d3_3 1
d3_4 0
d3_5 0
d3_6 0
d3_7 0
d3_8 0
d3_9 0
d3_0 0
d4_1 0
d4_2 0
d4_3 1
d4_4 0
d4_5 0
d4_6 0
d4_7 0
d4_8 0
d4_9 0
d4_0 0
d5_1 1
d5_2 0
d5_3 0
d5_4 0
d5_5 0
d5_6 0
d5_7 0
d5_8 0
d5_9 0
d5_0 0
